68
67
67
66
65
64
63
62
61
61
60
58
59
58
57
56
55
54
53
53
53
52
51
50
50
49
49
48
47
47
46
45
44
43
42
41
41
40
40
39
38
37
37
36
35
34
33
33
32
31
30
29
28
27
28
27
25
26
25
24
24
23
22
22
20
19
21
20
19
18
18
18
17
17
17
16
15
14
13
12
12
10
11
10
10
9
8
8
7
7
6
5
4
4
3
3
2
2
1
1
0